\* Equilibrio de asignaciones *\
Minimize
OBJ: Auxiliar_('204500',_'temporal') + Auxiliar_('204551',_'temporal')
 + Auxiliar_('303456',_'temporal')
Subject To
_C1: 13 Asignacion_('204551',_'2239865') + 40 Asignacion_('204551',_'2252677')
 + 5.5 Asignacion_('204551',_'2264000') <= 4
_C10: - 8.66666666667 Asignacion_('204500',_'2239865')
 - 26.6666666667 Asignacion_('204500',_'2252677')
 - 3.66666666667 Asignacion_('204500',_'2264000')
 - 108.333333333 Asignacion_('204551',_'2239865')
 - 333.333333333 Asignacion_('204551',_'2252677')
 - 45.8333333333 Asignacion_('204551',_'2264000')
 + 433.333333333 Asignacion_('303456',_'2239865')
 + 1333.33333333 Asignacion_('303456',_'2252677')
 + 183.333333333 Asignacion_('303456',_'2264000')
 + Auxiliar_('303456',_'temporal') >= 0
_C11: 17.3333333333 Asignacion_('204500',_'2239865')
 + 53.3333333333 Asignacion_('204500',_'2252677')
 + 7.33333333333 Asignacion_('204500',_'2264000')
 - 108.333333333 Asignacion_('204551',_'2239865')
 - 333.333333333 Asignacion_('204551',_'2252677')
 - 45.8333333333 Asignacion_('204551',_'2264000')
 - 216.666666667 Asignacion_('303456',_'2239865')
 - 666.666666667 Asignacion_('303456',_'2252677')
 - 91.6666666667 Asignacion_('303456',_'2264000')
 - Auxiliar_('204500',_'temporal') <= 0
_C12: 17.3333333333 Asignacion_('204500',_'2239865')
 + 53.3333333333 Asignacion_('204500',_'2252677')
 + 7.33333333333 Asignacion_('204500',_'2264000')
 - 108.333333333 Asignacion_('204551',_'2239865')
 - 333.333333333 Asignacion_('204551',_'2252677')
 - 45.8333333333 Asignacion_('204551',_'2264000')
 - 216.666666667 Asignacion_('303456',_'2239865')
 - 666.666666667 Asignacion_('303456',_'2252677')
 - 91.6666666667 Asignacion_('303456',_'2264000')
 + Auxiliar_('204500',_'temporal') >= 0
_C2: 13 Asignacion_('303456',_'2239865') + 40 Asignacion_('303456',_'2252677')
 + 5.5 Asignacion_('303456',_'2264000') <= 2
_C3: 13 Asignacion_('204500',_'2239865') + 40 Asignacion_('204500',_'2252677')
 + 5.5 Asignacion_('204500',_'2264000') <= 50
_C4: Asignacion_('204500',_'2264000') + Asignacion_('204551',_'2264000')
 + Asignacion_('303456',_'2264000') = 1
_C5: Asignacion_('204500',_'2239865') + Asignacion_('204551',_'2239865')
 + Asignacion_('303456',_'2239865') = 1
_C6: Asignacion_('204500',_'2252677') + Asignacion_('204551',_'2252677')
 + Asignacion_('303456',_'2252677') = 1
_C7: - 8.66666666667 Asignacion_('204500',_'2239865')
 - 26.6666666667 Asignacion_('204500',_'2252677')
 - 3.66666666667 Asignacion_('204500',_'2264000')
 + 216.666666667 Asignacion_('204551',_'2239865')
 + 666.666666667 Asignacion_('204551',_'2252677')
 + 91.6666666667 Asignacion_('204551',_'2264000')
 - 216.666666667 Asignacion_('303456',_'2239865')
 - 666.666666667 Asignacion_('303456',_'2252677')
 - 91.6666666667 Asignacion_('303456',_'2264000')
 - Auxiliar_('204551',_'temporal') <= 0
_C8: - 8.66666666667 Asignacion_('204500',_'2239865')
 - 26.6666666667 Asignacion_('204500',_'2252677')
 - 3.66666666667 Asignacion_('204500',_'2264000')
 + 216.666666667 Asignacion_('204551',_'2239865')
 + 666.666666667 Asignacion_('204551',_'2252677')
 + 91.6666666667 Asignacion_('204551',_'2264000')
 - 216.666666667 Asignacion_('303456',_'2239865')
 - 666.666666667 Asignacion_('303456',_'2252677')
 - 91.6666666667 Asignacion_('303456',_'2264000')
 + Auxiliar_('204551',_'temporal') >= 0
_C9: - 8.66666666667 Asignacion_('204500',_'2239865')
 - 26.6666666667 Asignacion_('204500',_'2252677')
 - 3.66666666667 Asignacion_('204500',_'2264000')
 - 108.333333333 Asignacion_('204551',_'2239865')
 - 333.333333333 Asignacion_('204551',_'2252677')
 - 45.8333333333 Asignacion_('204551',_'2264000')
 + 433.333333333 Asignacion_('303456',_'2239865')
 + 1333.33333333 Asignacion_('303456',_'2252677')
 + 183.333333333 Asignacion_('303456',_'2264000')
 - Auxiliar_('303456',_'temporal') <= 0
Bounds
Auxiliar_('204500',_'temporal') free
Auxiliar_('204551',_'temporal') free
Auxiliar_('303456',_'temporal') free
Binaries
Asignacion_('204500',_'2239865')
Asignacion_('204500',_'2252677')
Asignacion_('204500',_'2264000')
Asignacion_('204551',_'2239865')
Asignacion_('204551',_'2252677')
Asignacion_('204551',_'2264000')
Asignacion_('303456',_'2239865')
Asignacion_('303456',_'2252677')
Asignacion_('303456',_'2264000')
End
